134
Route #1: 1 55 
Route #2: 2 66 
Route #3: 3 31 46 
Route #4: 4 41 83 
Route #5: 5 29 62 101 
Route #6: 6 23 52 105 
Route #7: 7 58 107 
Route #8: 8 72 
Route #9: 9 32 100 
Route #10: 10 33 73 102 127 
Route #11: 11 85 
Route #12: 12 45 82 
Route #13: 13 67 
Route #14: 14 76 
Route #15: 15 49 
Route #16: 16 61 93 113 
Route #17: 17 75 
Route #18: 18 54 
Route #19: 19 57 106 
Route #20: 20 96 
Route #21: 21 59 116 
Route #22: 22 51 78 
Route #23: 24 70 108 
Route #24: 25 50 84 
Route #25: 26 71 
Route #26: 27 60 135 
Route #27: 28 97 
Route #28: 30 92 
Route #29: 34 98 
Route #30: 35 136 
Route #31: 36 155 
Route #32: 37 80 117 132 
Route #33: 38 79 162 
Route #34: 39 110 
Route #35: 40 88 118 151 
Route #36: 42 53 89 125 
Route #37: 43 87 119 
Route #38: 44 154 
Route #39: 47 115 
Route #40: 48 140 
Route #41: 56 95 179 
Route #42: 63 120 184 
Route #43: 64 147 
Route #44: 65 153 
Route #45: 68 123 187 
Route #46: 69 111 163 
Route #47: 74 126 178 
Route #48: 77 129 192 
Route #49: 81 137 
Route #50: 86 128 183 
Route #51: 90 134 182 
Route #52: 91 139 167 
Route #53: 94 170 209 
Route #54: 99 152 200 
Route #55: 103 143 
Route #56: 104 131 174 
Route #57: 109 175 
Route #58: 112 168 225 
Route #59: 114 171 217 
Route #60: 121 165 193 206 
Route #61: 122 160 197 231 
Route #62: 124 169 194 
Route #63: 130 202 244 
Route #64: 133 195 241 
Route #65: 138 211 
Route #66: 141 186 
Route #67: 142 158 176 220 249 
Route #68: 144 212 
Route #69: 145 172 214 
Route #70: 146 213 230 
Route #71: 148 203 
Route #72: 149 216 
Route #73: 150 228 
Route #74: 156 218 
Route #75: 157 227 
Route #76: 159 173 185 219 
Route #77: 161 205 253 
Route #78: 164 224 
Route #79: 166 191 240 
Route #80: 177 233 
Route #81: 180 251 
Route #82: 181 222 285 
Route #83: 188 284 
Route #84: 189 234 266 
Route #85: 190 226 281 
Route #86: 196 261 
Route #87: 198 280 
Route #88: 199 259 
Route #89: 201 221 239 264 
Route #90: 204 248 275 
Route #91: 207 276 308 
Route #92: 208 238 296 
Route #93: 210 223 300 
Route #94: 215 278 
Route #95: 229 291 
Route #96: 232 301 
Route #97: 235 256 297 
Route #98: 236 304 
Route #99: 237 270 311 
Route #100: 242 302 
Route #101: 243 298 318 343 
Route #102: 245 289 319 345 
Route #103: 246 288 310 330 
Route #104: 247 306 
Route #105: 250 309 
Route #106: 252 293 325 
Route #107: 254 305 
Route #108: 255 312 334 
Route #109: 257 329 350 
Route #110: 258 320 
Route #111: 260 322 
Route #112: 262 331 
Route #113: 263 328 
Route #114: 265 315 
Route #115: 267 323 
Route #116: 268 340 
Route #117: 269 336 
Route #118: 271 295 338 
Route #119: 272 324 
Route #120: 273 327 
Route #121: 274 321 
Route #122: 277 316 
Route #123: 279 341 
Route #124: 282 342 
Route #125: 283 326 
Route #126: 286 349 
Route #127: 287 313 344 
Route #128: 290 339 
Route #129: 292 346 
Route #130: 294 332 347 
Route #131: 299 348 
Route #132: 303 337 
Route #133: 307 314 335 
Route #134: 317 333 
Cost 134.0
